c instance by G2
c solution = 000011011000110
c Known solution cost is 643 
p cnf 15 30
w 85 33 37 2 11 75 0 59 40 99 96 40 35 26 5
-10 2 -5 0
5 -1 3 0
13 -5 4 0
-6 9 -13 0
11 -4 7 0
4 -13 -7 0
9 6 4 0
-8 -1 15 0
-2 7 -5 0
1 -11 -8 0
8 15 7 0
14 13 3 0
3 -11 -1 0
13 -7 5 0
11 1 5 0
-4 -12 9 0
-10 12 -6 0
-4 -10 1 0
-5 -8 6 0
14 -6 1 0
-5 -7 13 0
5 -1 -9 0
-4 12 7 0
-3 -6 1 0
-6 -7 3 0
11 4 -12 0
-5 7 -15 0
1 3 9 0
11 4 -2 0
14 -2 -4 0
